<instance format="XCSP3" type="CSP">
  <variables>
    <var id="x0"> 5 9 10 12 </var>
    <var id="x1"> 4 8 12 </var>
    <var id="x2"> 8 9 </var>
    <var id="x3"> 4 10 12 </var>
    <var id="x4"> 4 7 10 </var>
    <var id="x5"> 7..9 </var>
    <var id="x6"> 5 8 9 12 </var>
    <var id="x7"> 0 5 6 12 </var>
    <var id="x8"> 5 6 8 11 12 </var>
    <var id="x9"> 2 5 7 11 12 </var>
    <var id="x10"> 2 6 11 </var>
    <var id="x11"> 0 8 11 12 </var>
    <var id="x12"> 0 5..8 </var>
    <var id="x13"> 2 6 7 11 12 </var>
    <var id="x14"> 7 8 11 </var>
    <var id="x15"> 6 10 13 </var>
    <var id="x16"> 7 10 11 </var>
    <var id="x17"> 6 8 11 13 </var>
    <var id="x18"> 6 7 11 13 </var>
    <var id="x19"> 4 7 10 13 </var>
    <var id="x20"> 8 11 </var>
    <var id="x21"> 6..8 10 </var>
    <var id="x22"> 6 9 12 </var>
    <var id="x23"> 6 9 11 12 </var>
    <var id="x24"> 4 11 12 14 </var>
    <var id="x25"> 6 14 </var>
    <var id="x26"> 2 4 12 14 </var>
    <var id="x27"> 2 6 11 12 14 </var>
    <var id="x28"> 9 11 </var>
    <var id="x29"> 0 6 9 13 </var>
    <var id="x30"> 2 9 11 </var>
    <var id="x31"> 0 11 13 </var>
    <var id="x32"> 0 6 13 </var>
    <var id="x33"> 2 3 9 11 </var>
    <var id="x34"> 2 3 6 11 </var>
    <var id="x35"> 0 2 9 11 </var>
    <var id="x36"> 2 5 9..11 </var>
    <var id="x37"> 10 11 14 </var>
    <var id="x38"> 2 5 9 11 14 </var>
    <var id="x39"> 2 6 11 14 </var>
    <var id="x40"> 2 6 10 11 </var>
    <var id="x41"> 9 11 </var>
    <var id="x42"> 2 5 9 11 </var>
    <var id="x43"> 5 8 9 12 </var>
    <var id="x44"> 5 9 12 </var>
    <var id="x45"> 9 13 </var>
    <var id="x46"> 3 5 8 9 14 </var>
    <var id="x47"> 8 9 13 14 </var>
    <var id="x48"> 3 8 9 13 </var>
    <var id="x49"> 3 8 9 </var>
    <var id="x50"> 5 9 11 </var>
    <var id="x51"> 0 4 11 13 </var>
    <var id="x52"> 0 4 13 </var>
    <var id="x53"> 6 9 11 13 </var>
    <var id="x54"> 6 11 13 </var>
    <var id="x55"> 0 5 9 11 </var>
    <var id="x56"> 6 9 </var>
    <var id="x57"> 1 8 </var>
    <var id="x58"> 1 2 10 </var>
    <var id="x59"> 8 10 14 </var>
    <var id="x60"> 2 3 8 14 </var>
    <var id="x61"> 2 3 10 </var>
    <var id="x62"> 2 7 10 14 </var>
    <var id="x63"> 1 3 7 8 10 </var>
    <var id="x64"> 1 9 11 </var>
    <var id="x65"> 1 2 9..11 13 </var>
    <var id="x66"> 7 13 </var>
    <var id="x67"> 2 9 11 13 </var>
    <var id="x68"> 2 10 11 </var>
    <var id="x69"> 2 7 10 13 </var>
    <var id="x70"> 1 7 9 11 13 </var>
    <var id="x71"> 12 13 </var>
    <var id="x72"> 1 8 11 12 </var>
    <var id="x73"> 8 11..14 </var>
    <var id="x74"> 8 11 14 </var>
    <var id="x75"> 11 12 </var>
    <var id="x76"> 7 13 14 </var>
    <var id="x77"> 1 7 8 </var>
    <var id="x78"> 0 6 9 12 13 </var>
    <var id="x79"> 0 6 8 13 </var>
    <var id="x80"> 0 8 12 13 </var>
    <var id="x81"> 6 11 12 </var>
    <var id="x82"> 0 13 </var>
    <var id="x83"> 0 8 9 11 12 </var>
    <var id="x84"> 6 8 9 </var>
    <var id="x85"> 1 2 13 </var>
    <var id="x86"> 0 5 8 13 </var>
    <var id="x87"> 2 5 8 </var>
    <var id="x88"> 0 2 8 12 13 </var>
    <var id="x89"> 2 8 13 </var>
    <var id="x90"> 2 12 13 </var>
    <var id="x91"> 0 2 5 8 12 </var>
    <var id="x92"> 6 11 </var>
    <var id="x93"> 2 10 11 </var>
    <var id="x94"> 2 6 10 11 13 </var>
    <var id="x95"> 10 11 13 14 </var>
    <var id="x96"> 2 13 14 </var>
    <var id="x97"> 2 10 13 14 </var>
    <var id="x98"> 3 11 13 </var>
    <var id="x99"> 2 9 10 </var>
    <var id="x100"> 0 8 14 </var>
    <var id="x101"> 2 8 9 14 </var>
    <var id="x102"> 0 2 8 12 14 </var>
    <var id="x103"> 2 8 9 14 </var>
    <var id="x104"> 2 12 14 </var>
    <var id="x105"> 8..10 </var>
  </variables>
  <constraints>
    <group>
      <allDifferent> %... </allDifferent>
      <args> x0 x1 x2 x3 x4 x5 x6 </args>
      <args> x7 x8 x9 x10 x11 x12 x13 x14 </args>
      <args> x15 x16 x17 x18 x19 x20 x21 </args>
      <args> x22 x23 x24 x25 x26 x27 x28 </args>
      <args> x29 x30 x31 x32 x33 x34 x35 </args>
      <args> x36 x37 x38 x39 x40 x41 x42 </args>
      <args> x43 x44 x45 x46 x47 x48 x49 </args>
      <args> x50 x51 x52 x53 x54 x55 x56 </args>
      <args> x57 x58 x59 x60 x61 x62 x63 </args>
      <args> x64 x65 x66 x67 x68 x69 x70 </args>
      <args> x71 x72 x73 x74 x75 x76 x77 </args>
      <args> x78 x79 x80 x81 x82 x83 x84 </args>
      <args> x85 x86 x87 x88 x89 x90 x91 </args>
      <args> x92 x93 x94 x95 x96 x97 x98 </args>
      <args> x99 x100 x101 x102 x103 x104 x105 </args>
      <args> x0 x7 x15 x22 x29 x71 x78 </args>
      <args> x8 x23 x43 x57 x64 x72 x92 </args>
      <args> x9 x16 x30 x36 x44 x50 x93 </args>
      <args> x10 x45 x58 x65 x85 x94 x99 </args>
      <args> x11 x24 x31 x37 x51 x59 x73 x95 </args>
      <args> x12 x25 x32 x66 x79 x86 x100 </args>
      <args> x33 x38 x46 x60 x74 x87 x101 </args>
      <args> x1 x26 x52 x80 x88 x96 x102 </args>
      <args> x2 x17 x47 x53 x67 x89 x103 </args>
      <args> x13 x18 x27 x39 x54 x90 x104 </args>
      <args> x3 x34 x40 x61 x68 x75 x81 </args>
      <args> x4 x19 x62 x69 x76 x82 x97 </args>
      <args> x5 x14 x28 x41 x48 x70 x98 </args>
      <args> x6 x20 x35 x42 x55 x83 x91 </args>
      <args> x21 x49 x56 x63 x77 x84 x105 </args>
    </group>
  </constraints>
</instance>

